(set-logic QF_NRA)
(set-info :source |Benchmarks generated from hycomp (https://es-static.fbk.eu/tools/hycomp/). BMC instances of non-linear hybrid automata taken from: Alessandro Cimatti, Sergio Mover, Stefano Tonetta, A quantifier-free SMT encoding of non-linear hybrid automata, FMCAD 2012 and Alessandro Cimatti, Sergio Mover, Stefano Tonetta, Quantier-free encoding of invariants for Hybrid Systems, Formal Methods in System Design. This instance solves a BMC problem of depth 1 and uses the quantifier free encoding with lemmas encoding. Contacts: Sergio Mover (mover@fbk.eu), Stefano Tonetta (tonettas@fbk.eu), Alessandro Cimatti (cimatti@fbk.eu).|)
(set-info :smt-lib-version 2.0)
(set-info :category "industrial")
(set-info :status unsat)
;; MathSAT API call trace
;; generated on Mon Mar 19 10:45:32 2012
(declare-fun b.delta__AT0 () Real)
(declare-fun b.EVENT.0__AT0 () Bool)
(declare-fun b.y__AT1 () Real)
(declare-fun b.counter.0__AT1 () Bool)
(declare-fun b.counter.1__AT1 () Bool)
(declare-fun b.counter.2__AT1 () Bool)
(declare-fun speed_loss__AT0 () Real)
(declare-fun b.counter.3__AT1 () Bool)
(declare-fun b.EVENT.0__AT1 () Bool)
(declare-fun b.EVENT.1__AT1 () Bool)
(declare-fun b.counter.3__AT0 () Bool)
(declare-fun b.x__AT0 () Real)
(declare-fun b.speed_y__AT0 () Real)
(declare-fun b.speed_x__AT0 () Real)
(declare-fun b.x__AT1 () Real)
(declare-fun b.EVENT.1__AT0 () Bool)
(declare-fun b.event_is_timed__AT1 () Bool)
(declare-fun b.time__AT0 () Real)
(declare-fun b.speed_x__AT1 () Real)
(declare-fun b.speed_y__AT1 () Real)
(declare-fun b.y__AT0 () Real)
(declare-fun b.counter.0__AT0 () Bool)
(declare-fun b.counter.1__AT0 () Bool)
(declare-fun g__AT0 () Real)
(declare-fun b.event_is_timed__AT0 () Bool)
(declare-fun b.counter.2__AT0 () Bool)
(declare-fun b.time__AT1 () Real)
(declare-fun b.delta__AT1 () Real)
(assert (let ((.def_78 (* (- 1.0) g__AT0)))
(let ((.def_79 (* (/ 1 2) .def_78)))
(let ((.def_86 (* 2.0 .def_79)))
(let ((.def_130 (* (- 1.0) .def_86)))
(let ((.def_359 (* .def_130 b.delta__AT1)))
(let ((.def_362 (<= .def_359 b.speed_y__AT1)))
(let ((.def_369 (not .def_362)))
(let ((.def_322 (<= 0.0 b.speed_y__AT1)))
(let ((.def_370 (or .def_322 .def_369)))
(let ((.def_360 (<= b.speed_y__AT1 .def_359)))
(let ((.def_336 (<= b.speed_y__AT1 0.0 )))
(let ((.def_337 (not .def_336)))
(let ((.def_368 (or .def_337 .def_360)))
(let ((.def_371 (and .def_368 .def_370)))
(let ((.def_121 (<= g__AT0 0.0 )))
(let ((.def_372 (or .def_121 .def_371)))
(let ((.def_364 (not .def_360)))
(let ((.def_365 (or .def_336 .def_364)))
(let ((.def_323 (not .def_322)))
(let ((.def_363 (or .def_323 .def_362)))
(let ((.def_366 (and .def_363 .def_365)))
(let ((.def_126 (<= 0.0 g__AT0)))
(let ((.def_367 (or .def_126 .def_366)))
(let ((.def_373 (and .def_367 .def_372)))
(let ((.def_361 (and .def_336 .def_360)))
(let ((.def_374 (and .def_361 .def_373)))
(let ((.def_318 (* .def_86 b.delta__AT1)))
(let ((.def_319 (+ b.speed_y__AT1 .def_318)))
(let ((.def_334 (<= .def_319 0.0 )))
(let ((.def_335 (not .def_334)))
(let ((.def_354 (or .def_335 .def_336)))
(let ((.def_320 (<= 0.0 .def_319)))
(let ((.def_353 (or .def_320 .def_323)))
(let ((.def_355 (and .def_353 .def_354)))
(let ((.def_356 (or .def_126 .def_355)))
(let ((.def_321 (not .def_320)))
(let ((.def_350 (or .def_321 .def_322)))
(let ((.def_349 (or .def_334 .def_337)))
(let ((.def_351 (and .def_349 .def_350)))
(let ((.def_352 (or .def_121 .def_351)))
(let ((.def_357 (and .def_352 .def_356)))
(let ((.def_348 (and .def_320 .def_322)))
(let ((.def_358 (and .def_348 .def_357)))
(let ((.def_375 (or .def_358 .def_374)))
(let ((.def_313 (* b.speed_y__AT1 b.delta__AT1)))
(let ((.def_311 (* b.delta__AT1 b.delta__AT1)))
(let ((.def_312 (* .def_79 .def_311)))
(let ((.def_314 (+ .def_312 .def_313)))
(let ((.def_315 (+ b.y__AT1 .def_314)))
(let ((.def_328 (<= .def_315 0.0 )))
(let ((.def_342 (not .def_328)))
(let ((.def_326 (<= b.y__AT1 0.0 )))
(let ((.def_343 (or .def_326 .def_342)))
(let ((.def_298 (<= 0.0 b.y__AT1)))
(let ((.def_340 (not .def_298)))
(let ((.def_316 (<= 0.0 .def_315)))
(let ((.def_341 (or .def_316 .def_340)))
(let ((.def_344 (and .def_341 .def_343)))
(let ((.def_338 (or .def_335 .def_337)))
(let ((.def_339 (not .def_338)))
(let ((.def_345 (or .def_339 .def_344)))
(let ((.def_330 (not .def_316)))
(let ((.def_331 (or .def_298 .def_330)))
(let ((.def_327 (not .def_326)))
(let ((.def_329 (or .def_327 .def_328)))
(let ((.def_332 (and .def_329 .def_331)))
(let ((.def_324 (or .def_321 .def_323)))
(let ((.def_325 (not .def_324)))
(let ((.def_333 (or .def_325 .def_332)))
(let ((.def_346 (and .def_333 .def_345)))
(let ((.def_317 (and .def_298 .def_316)))
(let ((.def_347 (and .def_317 .def_346)))
(let ((.def_376 (and .def_347 .def_375)))
(let ((.def_59 (<= g__AT0 10.0 )))
(let ((.def_58 (<= 8.0 g__AT0)))
(let ((.def_60 (and .def_58 .def_59)))
(let ((.def_377 (and .def_60 .def_376)))
(let ((.def_67 (<= speed_loss__AT0 (/ 1 2))))
(let ((.def_64 (<= (/ 1 10) speed_loss__AT0)))
(let ((.def_68 (and .def_64 .def_67)))
(let ((.def_378 (and .def_68 .def_377)))
(let ((.def_34 (not b.counter.0__AT0)))
(let ((.def_32 (not b.counter.1__AT0)))
(let ((.def_35 (and .def_32 .def_34)))
(let ((.def_306 (or .def_35 b.counter.3__AT0)))
(let ((.def_303 (or .def_35 b.counter.2__AT0)))
(let ((.def_37 (not b.counter.2__AT0)))
(let ((.def_302 (or .def_32 .def_37)))
(let ((.def_304 (and .def_302 .def_303)))
(let ((.def_40 (not b.counter.3__AT0)))
(let ((.def_305 (or .def_40 .def_304)))
(let ((.def_307 (and .def_305 .def_306)))
(let ((.def_69 (and .def_60 .def_68)))
(let ((.def_299 (and .def_69 .def_298)))
(let ((.def_295 (not b.EVENT.0__AT1)))
(let ((.def_293 (not b.EVENT.1__AT1)))
(let ((.def_296 (or .def_293 .def_295)))
(let ((.def_9 (not b.counter.0__AT1)))
(let ((.def_6 (not b.counter.1__AT1)))
(let ((.def_286 (or .def_6 .def_9)))
(let ((.def_290 (or b.counter.3__AT1 .def_286)))
(let ((.def_287 (or b.counter.2__AT1 .def_286)))
(let ((.def_4 (not b.counter.2__AT1)))
(let ((.def_285 (or .def_4 .def_9)))
(let ((.def_288 (and .def_285 .def_287)))
(let ((.def_14 (not b.counter.3__AT1)))
(let ((.def_289 (or .def_14 .def_288)))
(let ((.def_291 (and .def_289 .def_290)))
(let ((.def_297 (and .def_291 .def_296)))
(let ((.def_300 (and .def_297 .def_299)))
(let ((.def_280 (<= 0.0 b.delta__AT0)))
(let ((.def_53 (not b.EVENT.0__AT0)))
(let ((.def_51 (not b.EVENT.1__AT0)))
(let ((.def_181 (and .def_51 .def_53)))
(let ((.def_182 (not .def_181)))
(let ((.def_281 (or .def_182 .def_280)))
(let ((.def_282 (or b.EVENT.1__AT0 .def_281)))
(let ((.def_229 (= b.counter.0__AT1 b.counter.0__AT0)))
(let ((.def_227 (= b.counter.1__AT1 b.counter.1__AT0)))
(let ((.def_225 (= b.counter.2__AT1 b.counter.2__AT0)))
(let ((.def_224 (= b.counter.3__AT1 b.counter.3__AT0)))
(let ((.def_226 (and .def_224 .def_225)))
(let ((.def_228 (and .def_226 .def_227)))
(let ((.def_230 (and .def_228 .def_229)))
(let ((.def_277 (or .def_182 .def_230)))
(let ((.def_278 (or b.EVENT.1__AT0 .def_277)))
(let ((.def_237 (= b.x__AT1 b.x__AT0)))
(let ((.def_234 (= b.y__AT0 b.y__AT1)))
(let ((.def_271 (and .def_234 .def_237)))
(let ((.def_163 (= b.speed_x__AT0 b.speed_x__AT1)))
(let ((.def_272 (and .def_163 .def_271)))
(let ((.def_223 (= b.speed_y__AT0 b.speed_y__AT1)))
(let ((.def_273 (and .def_223 .def_272)))
(let ((.def_268 (= b.delta__AT0 0.0 )))
(let ((.def_269 (and .def_181 .def_268)))
(let ((.def_270 (not .def_269)))
(let ((.def_274 (or .def_270 .def_273)))
(let ((.def_275 (or b.EVENT.1__AT0 .def_274)))
(let ((.def_248 (= b.time__AT0 b.time__AT1)))
(let ((.def_260 (and .def_237 .def_248)))
(let ((.def_261 (and .def_234 .def_260)))
(let ((.def_262 (and .def_163 .def_261)))
(let ((.def_263 (and .def_223 .def_262)))
(let ((.def_264 (and .def_230 .def_263)))
(let ((.def_265 (or .def_51 .def_264)))
(let ((.def_251 (* (- 1.0) b.time__AT1)))
(let ((.def_254 (+ b.delta__AT0 .def_251)))
(let ((.def_255 (+ b.time__AT0 .def_254)))
(let ((.def_256 (= .def_255 0.0 )))
(let ((.def_257 (or .def_182 .def_256)))
(let ((.def_258 (or b.EVENT.1__AT0 .def_257)))
(let ((.def_249 (or .def_181 .def_248)))
(let ((.def_250 (or b.EVENT.1__AT0 .def_249)))
(let ((.def_259 (and .def_250 .def_258)))
(let ((.def_266 (and .def_259 .def_265)))
(let ((.def_244 (= .def_182 b.event_is_timed__AT1)))
(let ((.def_242 (= b.event_is_timed__AT0 .def_181)))
(let ((.def_245 (and .def_242 .def_244)))
(let ((.def_231 (and .def_223 .def_230)))
(let ((.def_184 (= b.y__AT0 0.0 )))
(let ((.def_91 (<= 0.0 b.speed_y__AT0)))
(let ((.def_92 (not .def_91)))
(let ((.def_185 (and .def_92 .def_184)))
(let ((.def_232 (or .def_185 .def_231)))
(let ((.def_200 (or .def_9 b.counter.0__AT0)))
(let ((.def_199 (or b.counter.0__AT1 .def_34)))
(let ((.def_201 (and .def_199 .def_200)))
(let ((.def_202 (and .def_6 .def_201)))
(let ((.def_203 (or b.counter.1__AT0 .def_202)))
(let ((.def_198 (or b.counter.1__AT1 .def_32)))
(let ((.def_204 (and .def_198 .def_203)))
(let ((.def_215 (and .def_4 .def_204)))
(let ((.def_216 (or b.counter.2__AT0 .def_215)))
(let ((.def_210 (and .def_6 .def_34)))
(let ((.def_211 (or b.counter.1__AT0 .def_210)))
(let ((.def_212 (and .def_198 .def_211)))
(let ((.def_213 (and b.counter.2__AT1 .def_212)))
(let ((.def_214 (or .def_37 .def_213)))
(let ((.def_217 (and .def_214 .def_216)))
(let ((.def_218 (and b.counter.3__AT1 .def_217)))
(let ((.def_219 (or b.counter.3__AT0 .def_218)))
(let ((.def_205 (and b.counter.2__AT1 .def_204)))
(let ((.def_206 (or b.counter.2__AT0 .def_205)))
(let ((.def_194 (or b.counter.1__AT1 b.counter.1__AT0)))
(let ((.def_192 (and .def_6 b.counter.0__AT1)))
(let ((.def_193 (or .def_32 .def_192)))
(let ((.def_195 (and .def_193 .def_194)))
(let ((.def_196 (and .def_4 .def_195)))
(let ((.def_197 (or .def_37 .def_196)))
(let ((.def_207 (and .def_197 .def_206)))
(let ((.def_208 (and .def_14 .def_207)))
(let ((.def_209 (or .def_40 .def_208)))
(let ((.def_220 (and .def_209 .def_219)))
(let ((.def_189 (* (- 1.0) b.speed_y__AT0)))
(let ((.def_187 (* (- 1.0) speed_loss__AT0)))
(let ((.def_188 (+ 1.0 .def_187)))
(let ((.def_190 (* .def_188 .def_189)))
(let ((.def_191 (= b.speed_y__AT1 .def_190)))
(let ((.def_221 (and .def_191 .def_220)))
(let ((.def_186 (not .def_185)))
(let ((.def_222 (or .def_186 .def_221)))
(let ((.def_233 (and .def_222 .def_232)))
(let ((.def_235 (and .def_233 .def_234)))
(let ((.def_236 (and .def_163 .def_235)))
(let ((.def_238 (and .def_236 .def_237)))
(let ((.def_239 (or .def_181 .def_238)))
(let ((.def_240 (or b.EVENT.1__AT0 .def_239)))
(let ((.def_173 (* (- 1.0) b.y__AT1)))
(let ((.def_81 (* b.speed_y__AT0 b.delta__AT0)))
(let ((.def_176 (+ .def_81 .def_173)))
(let ((.def_76 (* b.delta__AT0 b.delta__AT0)))
(let ((.def_80 (* .def_76 .def_79)))
(let ((.def_177 (+ .def_80 .def_176)))
(let ((.def_178 (+ b.y__AT0 .def_177)))
(let ((.def_179 (= .def_178 0.0 )))
(let ((.def_167 (* (- 1.0) b.speed_y__AT1)))
(let ((.def_165 (* b.delta__AT0 .def_78)))
(let ((.def_168 (+ .def_165 .def_167)))
(let ((.def_169 (+ b.speed_y__AT0 .def_168)))
(let ((.def_170 (= .def_169 0.0 )))
(let ((.def_155 (* (- 1.0) b.x__AT1)))
(let ((.def_159 (+ .def_155 b.x__AT0)))
(let ((.def_153 (* b.delta__AT0 b.speed_x__AT0)))
(let ((.def_160 (+ .def_153 .def_159)))
(let ((.def_161 (= .def_160 0.0 )))
(let ((.def_164 (and .def_161 .def_163)))
(let ((.def_171 (and .def_164 .def_170)))
(let ((.def_180 (and .def_171 .def_179)))
(let ((.def_183 (or .def_180 .def_182)))
(let ((.def_241 (and .def_183 .def_240)))
(let ((.def_246 (and .def_241 .def_245)))
(let ((.def_267 (and .def_246 .def_266)))
(let ((.def_276 (and .def_267 .def_275)))
(let ((.def_279 (and .def_276 .def_278)))
(let ((.def_283 (and .def_279 .def_282)))
(let ((.def_284 (and .def_51 .def_283)))
(let ((.def_301 (and .def_284 .def_300)))
(let ((.def_308 (and .def_301 .def_307)))
(let ((.def_131 (* b.delta__AT0 .def_130)))
(let ((.def_134 (<= .def_131 b.speed_y__AT0)))
(let ((.def_141 (not .def_134)))
(let ((.def_142 (or .def_91 .def_141)))
(let ((.def_132 (<= b.speed_y__AT0 .def_131)))
(let ((.def_105 (<= b.speed_y__AT0 0.0 )))
(let ((.def_106 (not .def_105)))
(let ((.def_140 (or .def_106 .def_132)))
(let ((.def_143 (and .def_140 .def_142)))
(let ((.def_144 (or .def_121 .def_143)))
(let ((.def_136 (not .def_132)))
(let ((.def_137 (or .def_105 .def_136)))
(let ((.def_135 (or .def_92 .def_134)))
(let ((.def_138 (and .def_135 .def_137)))
(let ((.def_139 (or .def_126 .def_138)))
(let ((.def_145 (and .def_139 .def_144)))
(let ((.def_133 (and .def_105 .def_132)))
(let ((.def_146 (and .def_133 .def_145)))
(let ((.def_87 (* b.delta__AT0 .def_86)))
(let ((.def_88 (+ b.speed_y__AT0 .def_87)))
(let ((.def_103 (<= .def_88 0.0 )))
(let ((.def_104 (not .def_103)))
(let ((.def_124 (or .def_104 .def_105)))
(let ((.def_89 (<= 0.0 .def_88)))
(let ((.def_123 (or .def_89 .def_92)))
(let ((.def_125 (and .def_123 .def_124)))
(let ((.def_127 (or .def_125 .def_126)))
(let ((.def_90 (not .def_89)))
(let ((.def_119 (or .def_90 .def_91)))
(let ((.def_118 (or .def_103 .def_106)))
(let ((.def_120 (and .def_118 .def_119)))
(let ((.def_122 (or .def_120 .def_121)))
(let ((.def_128 (and .def_122 .def_127)))
(let ((.def_117 (and .def_89 .def_91)))
(let ((.def_129 (and .def_117 .def_128)))
(let ((.def_147 (or .def_129 .def_146)))
(let ((.def_82 (+ .def_80 .def_81)))
(let ((.def_83 (+ b.y__AT0 .def_82)))
(let ((.def_97 (<= .def_83 0.0 )))
(let ((.def_111 (not .def_97)))
(let ((.def_95 (<= b.y__AT0 0.0 )))
(let ((.def_112 (or .def_95 .def_111)))
(let ((.def_70 (<= 0.0 b.y__AT0)))
(let ((.def_109 (not .def_70)))
(let ((.def_84 (<= 0.0 .def_83)))
(let ((.def_110 (or .def_84 .def_109)))
(let ((.def_113 (and .def_110 .def_112)))
(let ((.def_107 (or .def_104 .def_106)))
(let ((.def_108 (not .def_107)))
(let ((.def_114 (or .def_108 .def_113)))
(let ((.def_99 (not .def_84)))
(let ((.def_100 (or .def_70 .def_99)))
(let ((.def_96 (not .def_95)))
(let ((.def_98 (or .def_96 .def_97)))
(let ((.def_101 (and .def_98 .def_100)))
(let ((.def_93 (or .def_90 .def_92)))
(let ((.def_94 (not .def_93)))
(let ((.def_102 (or .def_94 .def_101)))
(let ((.def_115 (and .def_102 .def_114)))
(let ((.def_85 (and .def_70 .def_84)))
(let ((.def_116 (and .def_85 .def_115)))
(let ((.def_148 (and .def_116 .def_147)))
(let ((.def_149 (and .def_60 .def_148)))
(let ((.def_150 (and .def_68 .def_149)))
(let ((.def_71 (and .def_69 .def_70)))
(let ((.def_54 (or .def_51 .def_53)))
(let ((.def_44 (or .def_32 .def_34)))
(let ((.def_48 (or b.counter.3__AT0 .def_44)))
(let ((.def_45 (or b.counter.2__AT0 .def_44)))
(let ((.def_43 (or .def_34 .def_37)))
(let ((.def_46 (and .def_43 .def_45)))
(let ((.def_47 (or .def_40 .def_46)))
(let ((.def_49 (and .def_47 .def_48)))
(let ((.def_55 (and .def_49 .def_54)))
(let ((.def_72 (and .def_55 .def_71)))
(let ((.def_38 (and .def_35 .def_37)))
(let ((.def_41 (and .def_38 .def_40)))
(let ((.def_29 (= b.speed_y__AT0 0.0 )))
(let ((.def_26 (= b.y__AT0 10.0 )))
(let ((.def_21 (= b.time__AT0 0.0 )))
(let ((.def_23 (and .def_21 b.event_is_timed__AT0)))
(let ((.def_27 (and .def_23 .def_26)))
(let ((.def_30 (and .def_27 .def_29)))
(let ((.def_42 (and .def_30 .def_41)))
(let ((.def_73 (and .def_42 .def_72)))
(let ((.def_10 (and .def_6 .def_9)))
(let ((.def_16 (or .def_10 b.counter.3__AT1)))
(let ((.def_11 (or b.counter.2__AT1 .def_10)))
(let ((.def_7 (or .def_4 .def_6)))
(let ((.def_12 (and .def_7 .def_11)))
(let ((.def_15 (or .def_12 .def_14)))
(let ((.def_17 (and .def_15 .def_16)))
(let ((.def_18 (not .def_17)))
(let ((.def_74 (and .def_18 .def_73)))
(let ((.def_151 (and .def_74 .def_150)))
(let ((.def_309 (and .def_151 .def_308)))
(let ((.def_379 (and .def_309 .def_378)))
.def_379))))))))))))))))))))))))))))))))))))))))))))))))))))))))))))))))))))))))))))))))))))))))))))))))))))))))))))))))))))))))))))))))))))))))))))))))))))))))))))))))))))))))))))))))))))))))))))))))))))))))))))))))))))))))))))))))))))))))))))))))))))))))))))))))))))))))))))))))))))))))))))))))))))))))))))))))))))))))))))))))))))))))))))))))
(check-sat)
(exit)
